************************************************************************
file with basedata            : md382_.bas
initial value random generator: 20216
************************************************************************
projects                      :  1
jobs (incl. supersource/sink ):  22
horizon                       :  162
RESOURCES
  - renewable                 :  2   R
  - nonrenewable              :  2   N
  - doubly constrained        :  0   D
************************************************************************
PROJECT INFORMATION:
pronr.  #jobs rel.date duedate tardcost  MPM-Time
    1     20      0       27        6       27
************************************************************************
PRECEDENCE RELATIONS:
jobnr.    #modes  #successors   successors
   1        1          3           2   3   4
   2        3          3           5   7   9
   3        3          3           6   7  20
   4        3          3           6  10  17
   5        3          2           8  12
   6        3          1          19
   7        3          2          14  15
   8        3          3          13  15  18
   9        3          2          10  15
  10        3          2          11  16
  11        3          2          13  18
  12        3          3          14  16  17
  13        3          2          14  21
  14        3          1          19
  15        3          1          19
  16        3          2          20  21
  17        3          1          20
  18        3          1          21
  19        3          1          22
  20        3          1          22
  21        3          1          22
  22        1          0        
************************************************************************
REQUESTS/DURATIONS:
jobnr. mode duration  R 1  R 2  N 1  N 2
------------------------------------------------------------------------
  1      1     0       0    0    0    0
  2      1     7       5    4    8    6
         2     8       3    3    7    3
         3    10       2    2    5    3
  3      1     6       8    8    9   10
         2     8       7    6    9    9
         3    10       5    6    9    9
  4      1     5       4    8    6    7
         2     7       4    5    6    5
         3    10       2    4    5    3
  5      1     3       6   10   10    2
         2     8       6    8    9    2
         3     9       1    6    9    1
  6      1     2       4    5    9    6
         2     4       3    2    8    5
         3     8       1    1    8    4
  7      1     3       8    7    9    9
         2     7       7    6    7    6
         3     9       3    3    6    4
  8      1     6       8    7    8    4
         2     6       6    5    8    5
         3     8       3    5    8    4
  9      1     5       8    3    8    5
         2     6       4    2    6    5
         3     6       3    3    8    5
 10      1     2       8    4    9    6
         2     3       6    3    4    4
         3     7       5    2    4    3
 11      1     1       6    6    3    9
         2     5       5    5    3    6
         3     9       3    3    1    5
 12      1     2       3    6   10    7
         2     3       2    6    9    4
         3     5       1    5    7    4
 13      1     6      10    7    4    3
         2     9       9    5    3    3
         3     9      10    5    3    1
 14      1     1       6    6    7    6
         2     2       5    4    6    3
         3     5       4    2    6    3
 15      1     4       9    3    3    8
         2     5       6    1    3    2
         3     5       5    2    3    2
 16      1     3       9    7    4    7
         2     6       6    7    3    6
         3    10       3    6    2    5
 17      1     1       4    4    7    8
         2     3       3    3    6    5
         3    10       3    2    4    5
 18      1     5       7    3    7    8
         2     8       6    2    7    6
         3     9       6    2    2    2
 19      1     3       3    8    8    8
         2     5       2    6    7    6
         3     9       2    2    6    4
 20      1     2       8    5    2    8
         2     4       7    3    2    7
         3     5       6    2    1    6
 21      1     5       7    6    9    7
         2     9       5    6    5    6
         3     9       6    5    3    6
 22      1     0       0    0    0    0
************************************************************************
RESOURCEAVAILABILITIES:
  R 1  R 2  N 1  N 2
   22   16  140  135
************************************************************************
MAXIMAL LAGS:
from  to  type  delay
    1   22   ES      0
    1    2   ES      0
    2   22   ES      0
    1    3   ES      0
    3   22   ES      0
    1    4   ES      0
    4   22   ES      0
    1    5   ES      0
    5   22   ES      0
    1    6   ES      0
    6   22   ES      0
    1    7   ES      0
    7   22   ES      0
    1    8   ES      0
    8   22   ES      0
    1    9   ES      0
    9   22   ES      0
    1   10   ES      0
   10   22   ES      0
    1   11   ES      0
   11   22   ES      0
    1   12   ES      0
   12   22   ES      0
    1   13   ES      0
   13   22   ES      0
    1   14   ES      0
   14   22   ES      0
    1   15   ES      0
   15   22   ES      0
    1   16   ES      0
   16   22   ES      0
    1   17   ES      0
   17   22   ES      0
    1   18   ES      0
   18   22   ES      0
    1   19   ES      0
   19   22   ES      0
    1   20   ES      0
   20   22   ES      0
    1   21   ES      0
   21   22   ES      0
    1   22   ES      0
    2    5   SS     12
    2    5   SE     11
    2    5   ES     -4
    2    5   EE     -7
    2    7   SS      4
    2    7   SE      8
    2    7   ES    -10
    2    7   EE      1
    2    9   SS      5
    2    9   SE     -5
    9    2   SE      0
    2    9   ES      0
    2    9   EE     -8
    3    6   SS     -2
    3    6   SE      2
    3    6   ES      3
    3    6   EE     -7
    3    7   SS    -10
    3    7   SE    -12
    3    7   ES     10
    3    7   EE      4
    3   20   SS      3
    3   20   SE     -7
    3   20   ES      2
    3   20   EE     -3
    4    6   SS     -9
    4    6   SE    -11
    4    6   ES     -1
    4    6   EE      6
    4   10   SS    -10
    4   10   SE     -1
    4   10   ES     11
    4   10   EE      2
    4   17   SS      6
    4   17   SE      4
    4   17   ES     11
    4   17   EE     11
    5    8   SS    -10
    5    8   SE     -1
    5    8   ES     -2
    5    8   EE     -2
    5   12   SS    -10
    5   12   SE      5
    5   12   ES     -3
    5   12   EE      6
    6   19   SS     -1
    6   19   SE     10
    6   19   ES     -1
    6   19   EE     -7
    7   14   SS      7
    7   14   SE      1
    7   14   ES     -4
    7   14   EE     -5
    7   15   SS      8
    7   15   SE     -2
    7   15   ES     -8
    7   15   EE     -8
    8   13   SS     -9
    8   13   SE      3
    8   13   ES     -6
    8   13   EE     -8
    8   15   SS      5
    8   15   SE     -3
    8   15   ES     -8
    8   15   EE     -4
    8   18   SS     12
    8   18   SE      4
    8   18   ES      3
    8   18   EE      8
    9   10   SS      9
    9   10   SE     -7
    9   10   ES      6
    9   10   EE      5
    9   15   SS    -11
    9   15   SE      9
    9   15   ES     -7
    9   15   EE    -12
   10   11   SS     -8
   10   11   SE      7
   10   11   ES    -10
   10   11   EE      8
   10   16   SS      2
   10   16   SE     -7
   10   16   ES      0
   10   16   EE     -2
   11   13   SS     12
   11   13   SE     -9
   11   13   ES      8
   11   13   EE      8
   11   18   SS     -5
   11   18   SE     11
   11   18   ES     -4
   11   18   EE     -8
   12   14   SS    -11
   12   14   SE     -3
   12   14   ES      8
   12   14   EE     -2
   12   16   SS      3
   12   16   SE      4
   12   16   ES     12
   12   16   EE     -9
   12   17   SS     -5
   12   17   SE     -9
   12   17   ES     -3
   12   17   EE     -1
   13   14   SS     12
   13   14   SE      0
   13   14   ES     -8
   13   14   EE     11
   13   21   SS     -1
   13   21   SE     -5
   13   21   ES    -11
   13   21   EE     -6
   14   19   SS    -11
   14   19   SE     -8
   14   19   ES     -4
   14   19   EE    -10
   15   19   SS     -5
   15   19   SE    -12
   15   19   ES    -12
   15   19   EE     -9
   16   20   SS     -9
   16   20   SE     -6
   16   20   ES    -10
   16   20   EE     -3
   16   21   SS      1
   16   21   SE     -3
   16   21   ES     -3
   16   21   EE     -7
   17   20   SS    -10
   17   20   SE     -3
   17   20   ES     -5
   17   20   EE      2
   18   21   SS      8
   18   21   SE      3
   18   21   ES      4
   18   21   EE      9
************************************************************************
